
  17    0


   0  10 2 3 4 5 6 12 13 14 15 16 
   6   3 11 10 7 
  10   2 9 7 
   5   2 9 7 
   8   2 8 7 
   4   1 8 
   5   1 17
   8   1 17
   4   1 17
   4   1 17
   4   1 17
   6   1 17
   2   1 17
  10   1 17
   5   1 17
   8   1 17
   0   0 
